Week_4/Product_Mix_Problem/__pycache__/Product_Mix_problem.sol
# Solution for model basic_model
# Objective value = 1667
A 0
B 0
C 942.5
D1 0
E1 20
D2 0
E2 0
M1 128
M2 66.5
M3 110.625
